p cnf 956 2452
51 -2 -690 0
-51 2 0
-51 690 0
52 -51 -3 0
-52 51 0
-52 3 0
53 -5 -4 0
-53 5 0
-53 4 0
54 -53 -6 0
-54 53 0
-54 6 0
55 -691 -692 0
-55 691 0
-55 692 0
56 -693 -690 0
-56 693 0
-56 690 0
57 -56 -8 0
-57 56 0
-57 8 0
58 -694 -55 0
-58 694 0
-58 55 0
59 -695 -696 0
-59 695 0
-59 696 0
60 -59 -11 0
-60 59 0
-60 11 0
61 -697 -58 0
-61 697 0
-61 58 0
62 -13 -12 0
-62 13 0
-62 12 0
63 -62 -698 0
-63 62 0
-63 698 0
64 -699 -61 0
-64 699 0
-64 61 0
65 -16 -15 0
-65 16 0
-65 15 0
66 -65 -17 0
-66 65 0
-66 17 0
67 -700 -64 0
-67 700 0
-67 64 0
68 -19 -18 0
-68 19 0
-68 18 0
69 -68 -701 0
-69 68 0
-69 701 0
70 -702 -67 0
-70 702 0
-70 67 0
71 -703 -1 0
-71 703 0
-71 1 0
72 -71 -20 0
-72 71 0
-72 20 0
73 -704 -70 0
-73 704 0
-73 70 0
74 -705 -706 0
-74 705 0
-74 706 0
75 -74 -707 0
-75 74 0
-75 707 0
76 -708 -73 0
-76 708 0
-76 73 0
77 -709 -695 0
-77 709 0
-77 695 0
78 -77 -14 0
-78 77 0
-78 14 0
79 -710 -76 0
-79 710 0
-79 76 0
80 -711 -7 0
-80 711 0
-80 7 0
81 -80 -712 0
-81 80 0
-81 712 0
82 -713 -79 0
-82 713 0
-82 79 0
83 -714 -18 0
-83 714 0
-83 18 0
84 -83 -715 0
-84 83 0
-84 715 0
85 -716 -82 0
-85 716 0
-85 82 0
86 -717 -718 0
-86 717 0
-86 718 0
87 -86 -28 0
-87 86 0
-87 28 0
88 -719 -85 0
-88 719 0
-88 85 0
89 -720 -1 0
-89 720 0
-89 1 0
90 -89 -721 0
-90 89 0
-90 721 0
91 -722 -88 0
-91 722 0
-91 88 0
92 -723 -724 0
-92 723 0
-92 724 0
93 -92 -33 0
-93 92 0
-93 33 0
94 -725 -91 0
-94 725 0
-94 91 0
95 -726 -28 0
-95 726 0
-95 28 0
96 -95 -698 0
-96 95 0
-96 698 0
97 -727 -94 0
-97 727 0
-97 94 0
98 -728 -693 0
-98 728 0
-98 693 0
99 -98 -14 0
-99 98 0
-99 14 0
100 -729 -97 0
-100 729 0
-100 97 0
101 -32 -24 0
-101 32 0
-101 24 0
102 -101 -721 0
-102 101 0
-102 721 0
103 -730 -100 0
-103 730 0
-103 100 0
104 -15 -706 0
-104 15 0
-104 706 0
105 -104 -23 0
-105 104 0
-105 23 0
106 -731 -103 0
-106 731 0
-106 103 0
107 -732 -733 0
-107 732 0
-107 733 0
108 -107 -14 0
-108 107 0
-108 14 0
109 -734 -106 0
-109 734 0
-109 106 0
110 -4 -690 0
-110 4 0
-110 690 0
111 -110 -709 0
-111 110 0
-111 709 0
112 -735 -109 0
-112 735 0
-112 109 0
113 -736 -13 0
-113 736 0
-113 13 0
114 -113 -35 0
-114 113 0
-114 35 0
115 -737 -112 0
-115 737 0
-115 112 0
116 -38 -726 0
-116 38 0
-116 726 0
117 -116 -705 0
-117 116 0
-117 705 0
118 -738 -115 0
-118 738 0
-118 115 0
119 -39 -728 0
-119 39 0
-119 728 0
120 -119 -17 0
-120 119 0
-120 17 0
121 -739 -118 0
-121 739 0
-121 118 0
122 -740 -706 0
-122 740 0
-122 706 0
123 -122 -29 0
-123 122 0
-123 29 0
124 -741 -121 0
-124 741 0
-124 121 0
125 -41 -13 0
-125 41 0
-125 13 0
126 -125 -21 0
-126 125 0
-126 21 0
127 -742 -124 0
-127 742 0
-127 124 0
128 -743 -10 0
-128 743 0
-128 10 0
129 -128 -43 0
-129 128 0
-129 43 0
130 -744 -127 0
-130 744 0
-130 127 0
131 -745 -26 0
-131 745 0
-131 26 0
132 -131 -18 0
-132 131 0
-132 18 0
133 -746 -130 0
-133 746 0
-133 130 0
134 -25 -695 0
-134 25 0
-134 695 0
135 -134 -747 0
-135 134 0
-135 747 0
136 -748 -133 0
-136 748 0
-136 133 0
137 -714 -749 0
-137 714 0
-137 749 0
138 -137 -27 0
-138 137 0
-138 27 0
139 -750 -136 0
-139 750 0
-139 136 0
140 -751 -1 0
-140 751 0
-140 1 0
141 -140 -705 0
-141 140 0
-141 705 0
142 -752 -139 0
-142 752 0
-142 139 0
143 -753 -10 0
-143 753 0
-143 10 0
144 -143 -754 0
-144 143 0
-144 754 0
145 -755 -142 0
-145 755 0
-145 142 0
146 -709 -756 0
-146 709 0
-146 756 0
147 -146 -757 0
-147 146 0
-147 757 0
148 -758 -145 0
-148 758 0
-148 145 0
149 -759 -34 0
-149 759 0
-149 34 0
150 -149 -760 0
-150 149 0
-150 760 0
151 -761 -148 0
-151 761 0
-151 148 0
152 -20 -19 0
-152 20 0
-152 19 0
153 -152 -29 0
-153 152 0
-153 29 0
154 -762 -151 0
-154 762 0
-154 151 0
155 -740 -7 0
-155 740 0
-155 7 0
156 -155 -10 0
-156 155 0
-156 10 0
157 -763 -154 0
-157 763 0
-157 154 0
158 -754 -764 0
-158 754 0
-158 764 0
159 -158 -728 0
-159 158 0
-159 728 0
160 -765 -157 0
-160 765 0
-160 157 0
161 -39 -7 0
-161 39 0
-161 7 0
162 -161 -766 0
-162 161 0
-162 766 0
163 -767 -160 0
-163 767 0
-163 160 0
164 -46 -4 0
-164 46 0
-164 4 0
165 -164 -768 0
-165 164 0
-165 768 0
166 -769 -163 0
-166 769 0
-166 163 0
167 -717 -13 0
-167 717 0
-167 13 0
168 -167 -24 0
-168 167 0
-168 24 0
169 -770 -166 0
-169 770 0
-169 166 0
170 -40 -717 0
-170 40 0
-170 717 0
171 -170 -35 0
-171 170 0
-171 35 0
172 -771 -169 0
-172 771 0
-172 169 0
173 -42 -37 0
-173 42 0
-173 37 0
174 -173 -33 0
-174 173 0
-174 33 0
175 -772 -172 0
-175 772 0
-175 172 0
176 -36 -695 0
-176 36 0
-176 695 0
177 -176 -6 0
-177 176 0
-177 6 0
178 -773 -175 0
-178 773 0
-178 175 0
179 -774 -696 0
-179 774 0
-179 696 0
180 -179 -8 0
-180 179 0
-180 8 0
181 -775 -178 0
-181 775 0
-181 178 0
182 -724 -1 0
-182 724 0
-182 1 0
183 -182 -43 0
-183 182 0
-183 43 0
184 -776 -181 0
-184 776 0
-184 181 0
185 -753 -1 0
-185 753 0
-185 1 0
186 -185 -705 0
-186 185 0
-186 705 0
187 -777 -184 0
-187 777 0
-187 184 0
188 -77 -753 0
-188 77 0
-188 753 0
189 -778 -187 0
-189 778 0
-189 187 0
190 -37 -764 0
-190 37 0
-190 764 0
191 -190 -47 0
-191 190 0
-191 47 0
192 -779 -189 0
-192 779 0
-192 189 0
193 -780 -26 0
-193 780 0
-193 26 0
194 -193 -743 0
-194 193 0
-194 743 0
195 -781 -192 0
-195 781 0
-195 192 0
196 -751 -4 0
-196 751 0
-196 4 0
197 -196 -717 0
-197 196 0
-197 717 0
198 -782 -195 0
-198 782 0
-198 195 0
199 -743 -37 0
-199 743 0
-199 37 0
200 -199 -698 0
-200 199 0
-200 698 0
201 -783 -198 0
-201 783 0
-201 198 0
202 -23 -7 0
-202 23 0
-202 7 0
203 -202 -47 0
-203 202 0
-203 47 0
204 -784 -201 0
-204 784 0
-204 201 0
205 -780 -726 0
-205 780 0
-205 726 0
206 -205 -24 0
-206 205 0
-206 24 0
207 -785 -204 0
-207 785 0
-207 204 0
208 -110 -39 0
-208 110 0
-208 39 0
209 -786 -207 0
-209 786 0
-209 207 0
210 -39 -714 0
-210 39 0
-210 714 0
211 -210 -747 0
-211 210 0
-211 747 0
212 -787 -209 0
-212 787 0
-212 209 0
213 -44 -11 0
-213 44 0
-213 11 0
214 -213 -747 0
-214 213 0
-214 747 0
215 -788 -212 0
-215 788 0
-215 212 0
216 -43 -720 0
-216 43 0
-216 720 0
217 -216 -721 0
-217 216 0
-217 721 0
218 -789 -215 0
-218 789 0
-218 215 0
219 -764 -706 0
-219 764 0
-219 706 0
220 -219 -747 0
-220 219 0
-220 747 0
221 -790 -218 0
-221 790 0
-221 218 0
222 -27 -15 0
-222 27 0
-222 15 0
223 -222 -711 0
-223 222 0
-223 711 0
224 -791 -221 0
-224 791 0
-224 221 0
225 -43 -39 0
-225 43 0
-225 39 0
226 -225 -14 0
-226 225 0
-226 14 0
227 -792 -224 0
-227 792 0
-227 224 0
228 -723 -712 0
-228 723 0
-228 712 0
229 -228 -698 0
-229 228 0
-229 698 0
230 -793 -227 0
-230 793 0
-230 227 0
231 -754 -26 0
-231 754 0
-231 26 0
232 -231 -28 0
-232 231 0
-232 28 0
233 -794 -230 0
-233 794 0
-233 230 0
234 -703 -751 0
-234 703 0
-234 751 0
235 -234 -720 0
-235 234 0
-235 720 0
236 -795 -233 0
-236 795 0
-236 233 0
237 -733 -5 0
-237 733 0
-237 5 0
238 -237 -35 0
-238 237 0
-238 35 0
239 -796 -236 0
-239 796 0
-239 236 0
240 -48 -2 0
-240 48 0
-240 2 0
241 -240 -41 0
-241 240 0
-241 41 0
242 -797 -239 0
-242 797 0
-242 239 0
243 -34 -724 0
-243 34 0
-243 724 0
244 -243 -701 0
-244 243 0
-244 701 0
245 -798 -242 0
-245 798 0
-245 242 0
246 -12 -756 0
-246 12 0
-246 756 0
247 -246 -717 0
-247 246 0
-247 717 0
248 -799 -245 0
-248 799 0
-248 245 0
249 -705 -20 0
-249 705 0
-249 20 0
250 -249 -754 0
-250 249 0
-250 754 0
251 -800 -248 0
-251 800 0
-251 248 0
252 -62 -22 0
-252 62 0
-252 22 0
253 -801 -251 0
-253 801 0
-253 251 0
254 -802 -3 0
-254 802 0
-254 3 0
255 -254 -29 0
-255 254 0
-255 29 0
256 -803 -253 0
-256 803 0
-256 253 0
257 -38 -718 0
-257 38 0
-257 718 0
258 -257 -22 0
-258 257 0
-258 22 0
259 -804 -256 0
-259 804 0
-259 256 0
260 -754 -40 0
-260 754 0
-260 40 0
261 -260 -698 0
-261 260 0
-261 698 0
262 -805 -259 0
-262 805 0
-262 259 0
263 -34 -696 0
-263 34 0
-263 696 0
264 -263 -21 0
-264 263 0
-264 21 0
265 -806 -262 0
-265 806 0
-265 262 0
266 -31 -4 0
-266 31 0
-266 4 0
267 -266 -753 0
-267 266 0
-267 753 0
268 -807 -265 0
-268 807 0
-268 265 0
269 -45 -25 0
-269 45 0
-269 25 0
270 -269 -757 0
-270 269 0
-270 757 0
271 -808 -268 0
-271 808 0
-271 268 0
272 -45 -4 0
-272 45 0
-272 4 0
273 -272 -717 0
-273 272 0
-273 717 0
274 -809 -271 0
-274 809 0
-274 271 0
275 -757 -810 0
-275 757 0
-275 810 0
276 -275 -47 0
-276 275 0
-276 47 0
277 -811 -274 0
-277 811 0
-277 274 0
278 -760 -23 0
-278 760 0
-278 23 0
279 -278 -705 0
-279 278 0
-279 705 0
280 -812 -277 0
-280 812 0
-280 277 0
281 -47 -27 0
-281 47 0
-281 27 0
282 -281 -8 0
-282 281 0
-282 8 0
283 -813 -280 0
-283 813 0
-283 280 0
284 -753 -706 0
-284 753 0
-284 706 0
285 -284 -723 0
-285 284 0
-285 723 0
286 -814 -283 0
-286 814 0
-286 283 0
287 -19 -10 0
-287 19 0
-287 10 0
288 -287 -21 0
-288 287 0
-288 21 0
289 -815 -286 0
-289 815 0
-289 286 0
290 -12 -810 0
-290 12 0
-290 810 0
291 -290 -5 0
-291 290 0
-291 5 0
292 -816 -289 0
-292 816 0
-292 289 0
293 -16 -4 0
-293 16 0
-293 4 0
294 -293 -817 0
-294 293 0
-294 817 0
295 -818 -292 0
-295 818 0
-295 292 0
296 -18 -7 0
-296 18 0
-296 7 0
297 -296 -42 0
-297 296 0
-297 42 0
298 -819 -295 0
-298 819 0
-298 295 0
299 -740 -2 0
-299 740 0
-299 2 0
300 -299 -37 0
-300 299 0
-300 37 0
301 -820 -298 0
-301 820 0
-301 298 0
302 -709 -7 0
-302 709 0
-302 7 0
303 -302 -24 0
-303 302 0
-303 24 0
304 -821 -301 0
-304 821 0
-304 301 0
305 -19 -2 0
-305 19 0
-305 2 0
306 -305 -7 0
-306 305 0
-306 7 0
307 -822 -304 0
-307 822 0
-307 304 0
308 -38 -756 0
-308 38 0
-308 756 0
309 -308 -17 0
-309 308 0
-309 17 0
310 -823 -307 0
-310 823 0
-310 307 0
311 -37 -709 0
-311 37 0
-311 709 0
312 -311 -41 0
-312 311 0
-312 41 0
313 -824 -310 0
-313 824 0
-313 310 0
314 -36 -757 0
-314 36 0
-314 757 0
315 -314 -41 0
-315 314 0
-315 41 0
316 -825 -313 0
-316 825 0
-316 313 0
317 -780 -37 0
-317 780 0
-317 37 0
318 -317 -35 0
-318 317 0
-318 35 0
319 -826 -316 0
-319 826 0
-319 316 0
320 -728 -817 0
-320 728 0
-320 817 0
321 -320 -30 0
-321 320 0
-321 30 0
322 -827 -319 0
-322 827 0
-322 319 0
323 -45 -764 0
-323 45 0
-323 764 0
324 -323 -8 0
-324 323 0
-324 8 0
325 -828 -322 0
-325 828 0
-325 322 0
326 -12 -706 0
-326 12 0
-326 706 0
327 -326 -754 0
-327 326 0
-327 754 0
328 -829 -325 0
-328 829 0
-328 325 0
329 -749 -810 0
-329 749 0
-329 810 0
330 -329 -732 0
-330 329 0
-330 732 0
331 -830 -328 0
-331 830 0
-331 328 0
332 -39 -764 0
-332 39 0
-332 764 0
333 -332 -711 0
-333 332 0
-333 711 0
334 -831 -331 0
-334 831 0
-334 331 0
335 -23 -749 0
-335 23 0
-335 749 0
336 -335 -817 0
-336 335 0
-336 817 0
337 -832 -334 0
-337 832 0
-337 334 0
338 -25 -709 0
-338 25 0
-338 709 0
339 -338 -20 0
-339 338 0
-339 20 0
340 -833 -337 0
-340 833 0
-340 337 0
341 -38 -22 0
-341 38 0
-341 22 0
342 -341 -6 0
-342 341 0
-342 6 0
343 -834 -340 0
-343 834 0
-343 340 0
344 -42 -696 0
-344 42 0
-344 696 0
345 -344 -747 0
-345 344 0
-345 747 0
346 -835 -343 0
-346 835 0
-346 343 0
347 -817 -711 0
-347 817 0
-347 711 0
348 -347 -35 0
-348 347 0
-348 35 0
349 -836 -346 0
-349 836 0
-349 346 0
350 -717 -1 0
-350 717 0
-350 1 0
351 -350 -5 0
-351 350 0
-351 5 0
352 -837 -349 0
-352 837 0
-352 349 0
353 -48 -45 0
-353 48 0
-353 45 0
354 -353 -717 0
-354 353 0
-354 717 0
355 -838 -352 0
-355 838 0
-355 352 0
356 -41 -40 0
-356 41 0
-356 40 0
357 -356 -728 0
-357 356 0
-357 728 0
358 -839 -355 0
-358 839 0
-358 355 0
359 -9 -756 0
-359 9 0
-359 756 0
360 -359 -705 0
-360 359 0
-360 705 0
361 -840 -358 0
-361 840 0
-361 358 0
362 -841 -757 0
-362 841 0
-362 757 0
363 -362 -47 0
-363 362 0
-363 47 0
364 -842 -361 0
-364 842 0
-364 361 0
365 -760 -33 0
-365 760 0
-365 33 0
366 -365 -6 0
-366 365 0
-366 6 0
367 -843 -364 0
-367 843 0
-367 364 0
368 -26 -709 0
-368 26 0
-368 709 0
369 -368 -27 0
-369 368 0
-369 27 0
370 -844 -367 0
-370 844 0
-370 367 0
371 -25 -11 0
-371 25 0
-371 11 0
372 -371 -802 0
-372 371 0
-372 802 0
373 -845 -370 0
-373 845 0
-373 370 0
374 -20 -764 0
-374 20 0
-374 764 0
375 -374 -715 0
-375 374 0
-375 715 0
376 -846 -373 0
-376 846 0
-376 373 0
377 -707 -3 0
-377 707 0
-377 3 0
378 -377 -6 0
-378 377 0
-378 6 0
379 -847 -376 0
-379 847 0
-379 376 0
380 -31 -749 0
-380 31 0
-380 749 0
381 -380 -24 0
-381 380 0
-381 24 0
382 -848 -379 0
-382 848 0
-382 379 0
383 -728 -714 0
-383 728 0
-383 714 0
384 -383 -14 0
-384 383 0
-384 14 0
385 -849 -382 0
-385 849 0
-385 382 0
386 -780 -1 0
-386 780 0
-386 1 0
387 -386 -724 0
-387 386 0
-387 724 0
388 -850 -385 0
-388 850 0
-388 385 0
389 -92 -728 0
-389 92 0
-389 728 0
390 -851 -388 0
-390 851 0
-390 388 0
391 -48 -40 0
-391 48 0
-391 40 0
392 -391 -753 0
-392 391 0
-392 753 0
393 -852 -390 0
-393 852 0
-393 390 0
394 -703 -757 0
-394 703 0
-394 757 0
395 -394 -720 0
-395 394 0
-395 720 0
396 -853 -393 0
-396 853 0
-396 393 0
397 -18 -1 0
-397 18 0
-397 1 0
398 -397 -774 0
-398 397 0
-398 774 0
399 -854 -396 0
-399 854 0
-399 396 0
400 -43 -690 0
-400 43 0
-400 690 0
401 -400 -721 0
-401 400 0
-401 721 0
402 -855 -399 0
-402 855 0
-402 399 0
403 -41 -753 0
-403 41 0
-403 753 0
404 -403 -24 0
-404 403 0
-404 24 0
405 -856 -402 0
-405 856 0
-405 402 0
406 -36 -27 0
-406 36 0
-406 27 0
407 -406 -37 0
-407 406 0
-407 37 0
408 -857 -405 0
-408 857 0
-408 405 0
409 -726 -709 0
-409 726 0
-409 709 0
410 -409 -720 0
-410 409 0
-410 720 0
411 -858 -408 0
-411 858 0
-411 408 0
412 -37 -10 0
-412 37 0
-412 10 0
413 -412 -753 0
-413 412 0
-413 753 0
414 -859 -411 0
-414 859 0
-414 411 0
415 -281 -860 0
-415 281 0
-415 860 0
416 -861 -414 0
-416 861 0
-416 414 0
417 -46 -2 0
-417 46 0
-417 2 0
418 -417 -6 0
-418 417 0
-418 6 0
419 -862 -416 0
-419 862 0
-419 416 0
420 -176 -42 0
-420 176 0
-420 42 0
421 -863 -419 0
-421 863 0
-421 419 0
422 -733 -751 0
-422 733 0
-422 751 0
423 -422 -27 0
-423 422 0
-423 27 0
424 -864 -421 0
-424 864 0
-424 421 0
425 -717 -18 0
-425 717 0
-425 18 0
426 -425 -43 0
-426 425 0
-426 43 0
427 -865 -424 0
-427 865 0
-427 424 0
428 -16 -841 0
-428 16 0
-428 841 0
429 -428 -28 0
-429 428 0
-429 28 0
430 -866 -427 0
-430 866 0
-430 427 0
431 -26 -9 0
-431 26 0
-431 9 0
432 -431 -14 0
-432 431 0
-432 14 0
433 -867 -430 0
-433 867 0
-433 430 0
434 -202 -760 0
-434 202 0
-434 760 0
435 -868 -433 0
-435 868 0
-435 433 0
436 -695 -693 0
-436 695 0
-436 693 0
437 -436 -5 0
-437 436 0
-437 5 0
438 -869 -435 0
-438 869 0
-438 435 0
439 -870 -695 0
-439 870 0
-439 695 0
440 -439 -768 0
-440 439 0
-440 768 0
441 -871 -438 0
-441 871 0
-441 438 0
442 -47 -5 0
-442 47 0
-442 5 0
443 -442 -6 0
-443 442 0
-443 6 0
444 -872 -441 0
-444 872 0
-444 441 0
445 -723 -25 0
-445 723 0
-445 25 0
446 -445 -705 0
-446 445 0
-446 705 0
447 -873 -444 0
-447 873 0
-447 444 0
448 -759 -810 0
-448 759 0
-448 810 0
449 -448 -749 0
-449 448 0
-449 749 0
450 -874 -447 0
-450 874 0
-450 447 0
451 -724 -11 0
-451 724 0
-451 11 0
452 -451 -720 0
-452 451 0
-452 720 0
453 -875 -450 0
-453 875 0
-453 450 0
454 -780 -690 0
-454 780 0
-454 690 0
455 -454 -14 0
-455 454 0
-455 14 0
456 -876 -453 0
-456 876 0
-456 453 0
457 -14 -706 0
-457 14 0
-457 706 0
458 -457 -6 0
-458 457 0
-458 6 0
459 -877 -456 0
-459 877 0
-459 456 0
460 -723 -2 0
-460 723 0
-460 2 0
461 -460 -29 0
-461 460 0
-461 29 0
462 -878 -459 0
-462 878 0
-462 459 0
463 -740 -696 0
-463 740 0
-463 696 0
464 -463 -7 0
-464 463 0
-464 7 0
465 -879 -462 0
-465 879 0
-465 462 0
466 -743 -36 0
-466 743 0
-466 36 0
467 -466 -30 0
-467 466 0
-467 30 0
468 -880 -465 0
-468 880 0
-468 465 0
469 -764 -10 0
-469 764 0
-469 10 0
470 -469 -728 0
-470 469 0
-470 728 0
471 -881 -468 0
-471 881 0
-471 468 0
472 -28 -693 0
-472 28 0
-472 693 0
473 -472 -728 0
-473 472 0
-473 728 0
474 -882 -471 0
-474 882 0
-474 471 0
475 -759 -753 0
-475 759 0
-475 753 0
476 -475 -841 0
-476 475 0
-476 841 0
477 -883 -474 0
-477 883 0
-477 474 0
478 -696 -706 0
-478 696 0
-478 706 0
479 -478 -720 0
-479 478 0
-479 720 0
480 -884 -477 0
-480 884 0
-480 477 0
481 -802 -726 0
-481 802 0
-481 726 0
482 -481 -41 0
-482 481 0
-482 41 0
483 -885 -480 0
-483 885 0
-483 480 0
484 -753 -703 0
-484 753 0
-484 703 0
485 -484 -13 0
-485 484 0
-485 13 0
486 -886 -483 0
-486 886 0
-486 483 0
487 -19 -4 0
-487 19 0
-487 4 0
488 -487 -35 0
-488 487 0
-488 35 0
489 -887 -486 0
-489 887 0
-489 486 0
490 -759 -26 0
-490 759 0
-490 26 0
491 -490 -48 0
-491 490 0
-491 48 0
492 -888 -489 0
-492 888 0
-492 489 0
493 -745 -711 0
-493 745 0
-493 711 0
494 -493 -698 0
-494 493 0
-494 698 0
495 -889 -492 0
-495 889 0
-495 492 0
496 -20 -696 0
-496 20 0
-496 696 0
497 -496 -17 0
-497 496 0
-497 17 0
498 -890 -495 0
-498 890 0
-498 495 0
499 -759 -709 0
-499 759 0
-499 709 0
500 -499 -698 0
-500 499 0
-500 698 0
501 -891 -498 0
-501 891 0
-501 498 0
502 -743 -26 0
-502 743 0
-502 26 0
503 -502 -712 0
-503 502 0
-503 712 0
504 -892 -501 0
-504 892 0
-504 501 0
505 -24 -696 0
-505 24 0
-505 696 0
506 -505 -17 0
-506 505 0
-506 17 0
507 -893 -504 0
-507 893 0
-507 504 0
508 -48 -690 0
-508 48 0
-508 690 0
509 -508 -38 0
-509 508 0
-509 38 0
510 -894 -507 0
-510 894 0
-510 507 0
511 -712 -711 0
-511 712 0
-511 711 0
512 -511 -768 0
-512 511 0
-512 768 0
513 -895 -510 0
-513 895 0
-513 510 0
514 -34 -695 0
-514 34 0
-514 695 0
515 -514 -701 0
-515 514 0
-515 701 0
516 -896 -513 0
-516 896 0
-516 513 0
517 -740 -751 0
-517 740 0
-517 751 0
518 -517 -802 0
-518 517 0
-518 802 0
519 -897 -516 0
-519 897 0
-519 516 0
520 -45 -16 0
-520 45 0
-520 16 0
521 -520 -33 0
-521 520 0
-521 33 0
522 -898 -519 0
-522 898 0
-522 519 0
523 -140 -712 0
-523 140 0
-523 712 0
524 -899 -522 0
-524 899 0
-524 522 0
525 -732 -764 0
-525 732 0
-525 764 0
526 -525 -802 0
-526 525 0
-526 802 0
527 -900 -524 0
-527 900 0
-527 524 0
528 -732 -715 0
-528 732 0
-528 715 0
529 -528 -49 0
-529 528 0
-529 49 0
530 -901 -527 0
-530 901 0
-530 527 0
531 -4 -706 0
-531 4 0
-531 706 0
532 -531 -870 0
-532 531 0
-532 870 0
533 -902 -530 0
-533 902 0
-533 530 0
534 -40 -39 0
-534 40 0
-534 39 0
535 -534 -712 0
-535 534 0
-535 712 0
536 -903 -533 0
-536 903 0
-536 533 0
537 -733 -714 0
-537 733 0
-537 714 0
538 -537 -718 0
-538 537 0
-538 718 0
539 -904 -536 0
-539 904 0
-539 536 0
540 -37 -3 0
-540 37 0
-540 3 0
541 -540 -721 0
-541 540 0
-541 721 0
542 -905 -539 0
-542 905 0
-542 539 0
543 -40 -774 0
-543 40 0
-543 774 0
544 -543 -23 0
-544 543 0
-544 23 0
545 -906 -542 0
-545 906 0
-545 542 0
546 -9 -690 0
-546 9 0
-546 690 0
547 -546 -817 0
-547 546 0
-547 817 0
548 -907 -545 0
-548 907 0
-548 545 0
549 -18 -693 0
-549 18 0
-549 693 0
550 -549 -717 0
-550 549 0
-550 717 0
551 -908 -548 0
-551 908 0
-551 548 0
552 -39 -26 0
-552 39 0
-552 26 0
553 -552 -860 0
-553 552 0
-553 860 0
554 -909 -551 0
-554 909 0
-554 551 0
555 -753 -37 0
-555 753 0
-555 37 0
556 -555 -721 0
-556 555 0
-556 721 0
557 -910 -554 0
-557 910 0
-557 554 0
558 -764 -4 0
-558 764 0
-558 4 0
559 -558 -715 0
-559 558 0
-559 715 0
560 -911 -557 0
-560 911 0
-560 557 0
561 -490 -756 0
-561 490 0
-561 756 0
562 -912 -560 0
-562 912 0
-562 560 0
563 -534 -760 0
-563 534 0
-563 760 0
564 -913 -562 0
-564 913 0
-564 562 0
565 -7 -706 0
-565 7 0
-565 706 0
566 -565 -754 0
-566 565 0
-566 754 0
567 -914 -564 0
-567 914 0
-567 564 0
568 -314 -698 0
-568 314 0
-568 698 0
569 -915 -567 0
-569 915 0
-569 567 0
570 -757 -690 0
-570 757 0
-570 690 0
571 -570 -47 0
-571 570 0
-571 47 0
572 -916 -569 0
-572 916 0
-572 569 0
573 -760 -34 0
-573 760 0
-573 34 0
574 -573 -14 0
-574 573 0
-574 14 0
575 -917 -572 0
-575 917 0
-575 572 0
576 -753 -717 0
-576 753 0
-576 717 0
577 -576 -707 0
-577 576 0
-577 707 0
578 -918 -575 0
-578 918 0
-578 575 0
579 -48 -718 0
-579 48 0
-579 718 0
580 -579 -49 0
-580 579 0
-580 49 0
581 -919 -578 0
-581 919 0
-581 578 0
582 -760 -39 0
-582 760 0
-582 39 0
583 -582 -698 0
-583 582 0
-583 698 0
584 -920 -581 0
-584 920 0
-584 581 0
585 -37 -20 0
-585 37 0
-585 20 0
586 -585 -49 0
-586 585 0
-586 49 0
587 -921 -584 0
-587 921 0
-587 584 0
588 -736 -3 0
-588 736 0
-588 3 0
589 -588 -49 0
-589 588 0
-589 49 0
590 -922 -587 0
-590 922 0
-590 587 0
591 -24 -19 0
-591 24 0
-591 19 0
592 -591 -698 0
-592 591 0
-592 698 0
593 -923 -590 0
-593 923 0
-593 590 0
594 -36 -756 0
-594 36 0
-594 756 0
595 -594 -46 0
-595 594 0
-595 46 0
596 -924 -593 0
-596 924 0
-596 593 0
597 -44 -27 0
-597 44 0
-597 27 0
598 -597 -21 0
-598 597 0
-598 21 0
599 -925 -596 0
-599 925 0
-599 596 0
600 -732 -751 0
-600 732 0
-600 751 0
601 -600 -723 0
-601 600 0
-601 723 0
602 -926 -599 0
-602 926 0
-602 599 0
603 -718 -756 0
-603 718 0
-603 756 0
604 -603 -707 0
-604 603 0
-604 707 0
605 -927 -602 0
-605 927 0
-605 602 0
606 -732 -21 0
-606 732 0
-606 21 0
607 -606 -35 0
-607 606 0
-607 35 0
608 -928 -605 0
-608 928 0
-608 605 0
609 -760 -757 0
-609 760 0
-609 757 0
610 -609 -35 0
-610 609 0
-610 35 0
611 -929 -608 0
-611 929 0
-611 608 0
612 -46 -706 0
-612 46 0
-612 706 0
613 -612 -33 0
-613 612 0
-613 33 0
614 -930 -611 0
-614 930 0
-614 611 0
615 -16 -12 0
-615 16 0
-615 12 0
616 -615 -29 0
-616 615 0
-616 29 0
617 -931 -614 0
-617 931 0
-617 614 0
618 -718 -19 0
-618 718 0
-618 19 0
619 -618 -42 0
-619 618 0
-619 42 0
620 -932 -617 0
-620 932 0
-620 617 0
621 -726 -841 0
-621 726 0
-621 841 0
622 -621 -766 0
-622 621 0
-622 766 0
623 -933 -620 0
-623 933 0
-623 620 0
624 -40 -733 0
-624 40 0
-624 733 0
625 -624 -870 0
-625 624 0
-625 870 0
626 -934 -623 0
-626 934 0
-626 623 0
627 -714 -2 0
-627 714 0
-627 2 0
628 -627 -22 0
-628 627 0
-628 22 0
629 -935 -626 0
-629 935 0
-629 626 0
630 -724 -8 0
-630 724 0
-630 8 0
631 -630 -6 0
-631 630 0
-631 6 0
632 -936 -629 0
-632 936 0
-632 629 0
633 -45 -27 0
-633 45 0
-633 27 0
634 -633 -707 0
-634 633 0
-634 707 0
635 -937 -632 0
-635 937 0
-635 632 0
636 -34 -714 0
-636 34 0
-636 714 0
637 -636 -49 0
-637 636 0
-637 49 0
638 -938 -635 0
-638 938 0
-638 635 0
639 -759 -717 0
-639 759 0
-639 717 0
640 -639 -21 0
-640 639 0
-640 21 0
641 -939 -638 0
-641 939 0
-641 638 0
642 -724 -718 0
-642 724 0
-642 718 0
643 -642 -11 0
-643 642 0
-643 11 0
644 -940 -641 0
-644 940 0
-644 641 0
645 -50 -723 0
-645 50 0
-645 723 0
646 -645 -802 0
-646 645 0
-646 802 0
647 -941 -644 0
-647 941 0
-647 644 0
648 -305 -723 0
-648 305 0
-648 723 0
649 -942 -647 0
-649 942 0
-649 647 0
650 -870 -723 0
-650 870 0
-650 723 0
651 -650 -30 0
-651 650 0
-651 30 0
652 -943 -649 0
-652 943 0
-652 649 0
653 -19 -7 0
-653 19 0
-653 7 0
654 -653 -23 0
-654 653 0
-654 23 0
655 -944 -652 0
-655 944 0
-655 652 0
656 -639 -860 0
-656 639 0
-656 860 0
657 -945 -655 0
-657 945 0
-657 655 0
658 -3 -810 0
-658 3 0
-658 810 0
659 -658 -41 0
-659 658 0
-659 41 0
660 -946 -657 0
-660 946 0
-660 657 0
661 -753 -9 0
-661 753 0
-661 9 0
662 -661 -711 0
-662 661 0
-662 711 0
663 -947 -660 0
-663 947 0
-663 660 0
664 -46 -5 0
-664 46 0
-664 5 0
665 -664 -33 0
-665 664 0
-665 33 0
666 -948 -663 0
-666 948 0
-666 663 0
667 -711 -16 0
-667 711 0
-667 16 0
668 -667 -22 0
-668 667 0
-668 22 0
669 -949 -666 0
-669 949 0
-669 666 0
670 -146 -19 0
-670 146 0
-670 19 0
671 -950 -669 0
-671 950 0
-671 669 0
672 -8 -2 0
-672 8 0
-672 2 0
673 -672 -768 0
-673 672 0
-673 768 0
674 -951 -671 0
-674 951 0
-674 671 0
675 -740 -690 0
-675 740 0
-675 690 0
676 -675 -747 0
-676 675 0
-676 747 0
677 -952 -674 0
-677 952 0
-677 674 0
678 -740 -9 0
-678 740 0
-678 9 0
679 -678 -47 0
-679 678 0
-679 47 0
680 -953 -677 0
-680 953 0
-680 677 0
681 -870 -841 0
-681 870 0
-681 841 0
682 -681 -17 0
-682 681 0
-682 17 0
683 -954 -680 0
-683 954 0
-683 680 0
684 -31 -701 0
-684 31 0
-684 701 0
685 -684 -747 0
-685 684 0
-685 747 0
686 -955 -683 0
-686 955 0
-686 683 0
687 -45 -34 0
-687 45 0
-687 34 0
688 -687 -760 0
-688 687 0
-688 760 0
689 -956 -686 0
-689 956 0
-689 686 0
-690 -1 0
690 1 0
-691 -54 0
691 54 0
-692 -52 0
692 52 0
-693 -7 0
693 7 0
-694 -57 0
694 57 0
-695 -10 0
695 10 0
-696 -9 0
696 9 0
-697 -60 0
697 60 0
-698 -14 0
698 14 0
-699 -63 0
699 63 0
-700 -66 0
700 66 0
-701 -8 0
701 8 0
-702 -69 0
702 69 0
-703 -19 0
703 19 0
-704 -72 0
704 72 0
-705 -21 0
705 21 0
-706 -3 0
706 3 0
-707 -22 0
707 22 0
-708 -75 0
708 75 0
-709 -15 0
709 15 0
-710 -78 0
710 78 0
-711 -23 0
711 23 0
-712 -24 0
712 24 0
-713 -81 0
713 81 0
-714 -25 0
714 25 0
-715 -13 0
715 13 0
-716 -84 0
716 84 0
-717 -27 0
717 27 0
-718 -26 0
718 26 0
-719 -87 0
719 87 0
-720 -29 0
720 29 0
-721 -30 0
721 30 0
-722 -90 0
722 90 0
-723 -32 0
723 32 0
-724 -31 0
724 31 0
-725 -93 0
725 93 0
-726 -34 0
726 34 0
-727 -96 0
727 96 0
-728 -35 0
728 35 0
-729 -99 0
729 99 0
-730 -102 0
730 102 0
-731 -105 0
731 105 0
-732 -37 0
732 37 0
-733 -36 0
733 36 0
-734 -108 0
734 108 0
-735 -111 0
735 111 0
-736 -20 0
736 20 0
-737 -114 0
737 114 0
-738 -117 0
738 117 0
-739 -120 0
739 120 0
-740 -40 0
740 40 0
-741 -123 0
741 123 0
-742 -126 0
742 126 0
-743 -42 0
743 42 0
-744 -129 0
744 129 0
-745 -44 0
745 44 0
-746 -132 0
746 132 0
-747 -17 0
747 17 0
-748 -135 0
748 135 0
-749 -16 0
749 16 0
-750 -138 0
750 138 0
-751 -12 0
751 12 0
-752 -141 0
752 141 0
-753 -39 0
753 39 0
-754 -43 0
754 43 0
-755 -144 0
755 144 0
-756 -4 0
756 4 0
-757 -5 0
757 5 0
-758 -147 0
758 147 0
-759 -45 0
759 45 0
-760 -41 0
760 41 0
-761 -150 0
761 150 0
-762 -153 0
762 153 0
-763 -156 0
763 156 0
-764 -18 0
764 18 0
-765 -159 0
765 159 0
-766 -46 0
766 46 0
-767 -162 0
767 162 0
-768 -33 0
768 33 0
-769 -165 0
769 165 0
-770 -168 0
770 168 0
-771 -171 0
771 171 0
-772 -174 0
772 174 0
-773 -177 0
773 177 0
-774 -38 0
774 38 0
-775 -180 0
775 180 0
-776 -183 0
776 183 0
-777 -186 0
777 186 0
-778 -188 0
778 188 0
-779 -191 0
779 191 0
-780 -48 0
780 48 0
-781 -194 0
781 194 0
-782 -197 0
782 197 0
-783 -200 0
783 200 0
-784 -203 0
784 203 0
-785 -206 0
785 206 0
-786 -208 0
786 208 0
-787 -211 0
787 211 0
-788 -214 0
788 214 0
-789 -217 0
789 217 0
-790 -220 0
790 220 0
-791 -223 0
791 223 0
-792 -226 0
792 226 0
-793 -229 0
793 229 0
-794 -232 0
794 232 0
-795 -235 0
795 235 0
-796 -238 0
796 238 0
-797 -241 0
797 241 0
-798 -244 0
798 244 0
-799 -247 0
799 247 0
-800 -250 0
800 250 0
-801 -252 0
801 252 0
-802 -49 0
802 49 0
-803 -255 0
803 255 0
-804 -258 0
804 258 0
-805 -261 0
805 261 0
-806 -264 0
806 264 0
-807 -267 0
807 267 0
-808 -270 0
808 270 0
-809 -273 0
809 273 0
-810 -2 0
810 2 0
-811 -276 0
811 276 0
-812 -279 0
812 279 0
-813 -282 0
813 282 0
-814 -285 0
814 285 0
-815 -288 0
815 288 0
-816 -291 0
816 291 0
-817 -28 0
817 28 0
-818 -294 0
818 294 0
-819 -297 0
819 297 0
-820 -300 0
820 300 0
-821 -303 0
821 303 0
-822 -306 0
822 306 0
-823 -309 0
823 309 0
-824 -312 0
824 312 0
-825 -315 0
825 315 0
-826 -318 0
826 318 0
-827 -321 0
827 321 0
-828 -324 0
828 324 0
-829 -327 0
829 327 0
-830 -330 0
830 330 0
-831 -333 0
831 333 0
-832 -336 0
832 336 0
-833 -339 0
833 339 0
-834 -342 0
834 342 0
-835 -345 0
835 345 0
-836 -348 0
836 348 0
-837 -351 0
837 351 0
-838 -354 0
838 354 0
-839 -357 0
839 357 0
-840 -360 0
840 360 0
-841 -11 0
841 11 0
-842 -363 0
842 363 0
-843 -366 0
843 366 0
-844 -369 0
844 369 0
-845 -372 0
845 372 0
-846 -375 0
846 375 0
-847 -378 0
847 378 0
-848 -381 0
848 381 0
-849 -384 0
849 384 0
-850 -387 0
850 387 0
-851 -389 0
851 389 0
-852 -392 0
852 392 0
-853 -395 0
853 395 0
-854 -398 0
854 398 0
-855 -401 0
855 401 0
-856 -404 0
856 404 0
-857 -407 0
857 407 0
-858 -410 0
858 410 0
-859 -413 0
859 413 0
-860 -6 0
860 6 0
-861 -415 0
861 415 0
-862 -418 0
862 418 0
-863 -420 0
863 420 0
-864 -423 0
864 423 0
-865 -426 0
865 426 0
-866 -429 0
866 429 0
-867 -432 0
867 432 0
-868 -434 0
868 434 0
-869 -437 0
869 437 0
-870 -47 0
870 47 0
-871 -440 0
871 440 0
-872 -443 0
872 443 0
-873 -446 0
873 446 0
-874 -449 0
874 449 0
-875 -452 0
875 452 0
-876 -455 0
876 455 0
-877 -458 0
877 458 0
-878 -461 0
878 461 0
-879 -464 0
879 464 0
-880 -467 0
880 467 0
-881 -470 0
881 470 0
-882 -473 0
882 473 0
-883 -476 0
883 476 0
-884 -479 0
884 479 0
-885 -482 0
885 482 0
-886 -485 0
886 485 0
-887 -488 0
887 488 0
-888 -491 0
888 491 0
-889 -494 0
889 494 0
-890 -497 0
890 497 0
-891 -500 0
891 500 0
-892 -503 0
892 503 0
-893 -506 0
893 506 0
-894 -509 0
894 509 0
-895 -512 0
895 512 0
-896 -515 0
896 515 0
-897 -518 0
897 518 0
-898 -521 0
898 521 0
-899 -523 0
899 523 0
-900 -526 0
900 526 0
-901 -529 0
901 529 0
-902 -532 0
902 532 0
-903 -535 0
903 535 0
-904 -538 0
904 538 0
-905 -541 0
905 541 0
-906 -544 0
906 544 0
-907 -547 0
907 547 0
-908 -550 0
908 550 0
-909 -553 0
909 553 0
-910 -556 0
910 556 0
-911 -559 0
911 559 0
-912 -561 0
912 561 0
-913 -563 0
913 563 0
-914 -566 0
914 566 0
-915 -568 0
915 568 0
-916 -571 0
916 571 0
-917 -574 0
917 574 0
-918 -577 0
918 577 0
-919 -580 0
919 580 0
-920 -583 0
920 583 0
-921 -586 0
921 586 0
-922 -589 0
922 589 0
-923 -592 0
923 592 0
-924 -595 0
924 595 0
-925 -598 0
925 598 0
-926 -601 0
926 601 0
-927 -604 0
927 604 0
-928 -607 0
928 607 0
-929 -610 0
929 610 0
-930 -613 0
930 613 0
-931 -616 0
931 616 0
-932 -619 0
932 619 0
-933 -622 0
933 622 0
-934 -625 0
934 625 0
-935 -628 0
935 628 0
-936 -631 0
936 631 0
-937 -634 0
937 634 0
-938 -637 0
938 637 0
-939 -640 0
939 640 0
-940 -643 0
940 643 0
-941 -646 0
941 646 0
-942 -648 0
942 648 0
-943 -651 0
943 651 0
-944 -654 0
944 654 0
-945 -656 0
945 656 0
-946 -659 0
946 659 0
-947 -662 0
947 662 0
-948 -665 0
948 665 0
-949 -668 0
949 668 0
-950 -670 0
950 670 0
-951 -673 0
951 673 0
-952 -676 0
952 676 0
-953 -679 0
953 679 0
-954 -682 0
954 682 0
-955 -685 0
955 685 0
-956 -688 0
956 688 0
689 0
